100
1000
373
368
368
367
365
360
352
335
335
332
324
321
321
320
316
304
304
303
299
298
294
292
288
286
284
273
273
273
266
266
263
262
262
259
258
256
255
249
245
237
230
227
221
220
216
208
206
206
202
189
188
185
184
180
179
178
176
173
167
158
154
148
148
147
145
139
135
132
130
124
122
122
116
114
111
111
111
104
98
89
84
79
72
70
63
61
60
59
55
54
50
44
44
41
39
32
31
30
26
25
